experiment/data/lkh-res/Vrp-Set-B-n78/Vrp-Set-B-n78-lkh/0.lkh1.vrp
NAME : 0
COMMENT : CVRP Instance
TYPE : CVRP
DIMENSION : 78
EDGE_WEIGHT_TYPE : EUC_2D
CAPACITY : 100
NODE_COORD_SECTION
1	4600	1200
2	5100	400
3	5200	3000
4	8000	7000
5	1800	9000
6	5900	3900
7	2300	5900
8	7700	4800
9	8200	3000
10	1800	8200
11	1100	4100
12	700	900
13	8800	3300
14	2300	8800
15	0	7600
16	8500	3400
17	1700	4600
18	5200	1000
19	1300	4500
20	1900	8500
21	8600	7700
22	5400	600
23	8300	3200
24	1500	1000
25	5300	500
26	1400	4200
27	1300	1000
28	5700	3200
29	2000	8500
30	6500	4600
31	6100	4200
32	8700	5200
33	7900	5100
34	2500	9100
35	8900	3400
36	2600	10000
37	0	8800
38	6300	4300
39	5500	1000
40	2300	8600
41	800	1800
42	0	7400
43	2000	4400
44	5600	700
45	1400	1000
46	8800	4000
47	9600	3800
48	5900	3100
49	2200	8700
50	5900	3600
51	2400	8300
52	8300	3700
53	5300	500
54	0	3700
55	8400	7800
56	2700	9300
57	6100	1200
58	6900	4300
59	5400	900
60	2000	9800
61	1800	5000
62	2500	8400
63	3100	6900
64	5800	3600
65	0	1100
66	6100	3600
67	1800	4900
68	5700	800
69	0	4900
70	5600	800
71	6200	4500
72	8300	3200
73	5300	1000
74	8200	5300
75	2100	8500
76	6400	4100
77	8000	5000
78	1600	1000
DEMAND_SECTION
1	0
2	14
3	17
4	17
5	16
6	19
7	17
8	5
9	12
10	4
11	2
12	2
13	26
14	2
15	7
16	18
17	6
18	6
19	18
20	2
21	14
22	5
23	9
24	4
25	3
26	15
27	4
28	23
29	7
30	21
31	4
32	1
33	6
34	16
35	4
36	20
37	5
38	14
39	14
40	26
41	5
42	2
43	14
44	11
45	21
46	20
47	18
48	2
49	19
50	12
51	22
52	14
53	23
54	25
55	8
56	3
57	9
58	21
59	3
60	22
61	6
62	2
63	22
64	20
65	5
66	13
67	6
68	14
69	16
70	12
71	23
72	5
73	12
74	15
75	21
76	4
77	23
78	19
DEPOT_SECTION
1
-1
EOF
