experiment/data/lkh-res/Vrp-Set-B-n78/Vrp-Set-B-n78-lkh/0.lkh1.log
PARAMETER_FILE = baseline_results/cvrp_lkh/Vrp-Set-B-n78/Vrp-Set-B-n78-lkh/0.lkh1.par
Reading PROBLEM_FILE: "baseline_results/cvrp_lkh/Vrp-Set-B-n78/Vrp-Set-B-n78-lkh/0.lkh1.vrp" ... done
ASCENT_CANDIDATES = 50
BACKBONE_TRIALS = 0
BACKTRACKING = NO
# BWTSP =
# CANDIDATE_FILE =
CANDIDATE_SET_TYPE = ALPHA
# DISTANCE =
DEPOT = 1
# EDGE_FILE =
EXCESS = 0.0128205
EXTERNAL_SALESMEN = 0
EXTRA_CANDIDATES = 0 
EXTRA_CANDIDATE_SET_TYPE = QUADRANT
GAIN23 = NO
GAIN_CRITERION = YES
INITIAL_PERIOD = 100
INITIAL_STEP_SIZE = 1
INITIAL_TOUR_ALGORITHM = WALK
# INITIAL_TOUR_FILE = 
INITIAL_TOUR_FRACTION = 1.000
# INPUT_TOUR_FILE = 
KICK_TYPE = 4
KICKS = 1
# MAX_BREADTH =
MAKESPAN = NO
MAX_CANDIDATES = 5 
MAX_SWAPS = 0
MAX_TRIALS = 10000
# MERGE_TOUR_FILE =
MOVE_TYPE = 5 SPECIAL
MTSP_MIN_SIZE = 1
MTSP_MAX_SIZE = 77
# MTSP_SOLUTION_FILE = 
# NONSEQUENTIAL_MOVE_TYPE = 5
# OPTIMUM =
OUTPUT_TOUR_FILE = baseline_results/cvrp_lkh/Vrp-Set-B-n78/Vrp-Set-B-n78-lkh/0.lkh1.tour
PATCHING_A = 1 
PATCHING_C = 0 
# PI_FILE = 
POPMUSIC_INITIAL_TOUR = NO
POPMUSIC_MAX_NEIGHBORS = 5
POPMUSIC_SAMPLE_SIZE = 10
POPMUSIC_SOLUTIONS = 50
POPMUSIC_TRIALS = 1
POPULATION_SIZE = 10
PRECISION = 100
PROBLEM_FILE = baseline_results/cvrp_lkh/Vrp-Set-B-n78/Vrp-Set-B-n78-lkh/0.lkh1.vrp
RECOMBINATION = IPT
RESTRICTED_SEARCH = YES
RUNS = 1
SALESMEN = 10
SCALE = 1
SEED = 1234
# SINTEF_SOLUTION_FILE = 
STOP_AT_OPTIMUM = YES
SUBGRADIENT = YES
# SUBPROBLEM_SIZE =
# SUBPROBLEM_TOUR_FILE = 
SUBSEQUENT_MOVE_TYPE = 5 SPECIAL
SUBSEQUENT_PATCHING = YES
# TIME_LIMIT =
# TOTAL_TIME_LIMIT =
# TOUR_FILE = 
TRACE_LEVEL = 1
VEHICLES = 10

Lower bound = 64392.5, Ascent time = 0.02 sec.
Cand.min = 5, Cand.avg = 5.0, Cand.max = 5
Preprocessing time = 0.02 sec.
* 1: Cost = 0_134784, Time = 0.01 sec. 
Writing OUTPUT_TOUR_FILE: "baseline_results/cvrp_lkh/Vrp-Set-B-n78/Vrp-Set-B-n78-lkh/0.lkh1.tour" ... done
* 2: Cost = 0_129445, Time = 0.02 sec. 
Writing OUTPUT_TOUR_FILE: "baseline_results/cvrp_lkh/Vrp-Set-B-n78/Vrp-Set-B-n78-lkh/0.lkh1.tour" ... done
* 4: Cost = 0_128975, Time = 0.03 sec. 
Writing OUTPUT_TOUR_FILE: "baseline_results/cvrp_lkh/Vrp-Set-B-n78/Vrp-Set-B-n78-lkh/0.lkh1.tour" ... done
* 9: Cost = 0_128970, Time = 0.06 sec. 
Writing OUTPUT_TOUR_FILE: "baseline_results/cvrp_lkh/Vrp-Set-B-n78/Vrp-Set-B-n78-lkh/0.lkh1.tour" ... done
* 16: Cost = 0_128834, Time = 0.10 sec. 
Writing OUTPUT_TOUR_FILE: "baseline_results/cvrp_lkh/Vrp-Set-B-n78/Vrp-Set-B-n78-lkh/0.lkh1.tour" ... done
* 21: Cost = 0_127179, Time = 0.13 sec. 
Writing OUTPUT_TOUR_FILE: "baseline_results/cvrp_lkh/Vrp-Set-B-n78/Vrp-Set-B-n78-lkh/0.lkh1.tour" ... done
* 26: Cost = 0_125767, Time = 0.15 sec. 
Writing OUTPUT_TOUR_FILE: "baseline_results/cvrp_lkh/Vrp-Set-B-n78/Vrp-Set-B-n78-lkh/0.lkh1.tour" ... done
* 30: Cost = 0_125383, Time = 0.16 sec. 
Writing OUTPUT_TOUR_FILE: "baseline_results/cvrp_lkh/Vrp-Set-B-n78/Vrp-Set-B-n78-lkh/0.lkh1.tour" ... done
* 40: Cost = 0_124253, Time = 0.21 sec. 
Writing OUTPUT_TOUR_FILE: "baseline_results/cvrp_lkh/Vrp-Set-B-n78/Vrp-Set-B-n78-lkh/0.lkh1.tour" ... done
* 82: Cost = 0_124239, Time = 0.37 sec. 
Writing OUTPUT_TOUR_FILE: "baseline_results/cvrp_lkh/Vrp-Set-B-n78/Vrp-Set-B-n78-lkh/0.lkh1.tour" ... done
* 122: Cost = 0_124232, Time = 0.53 sec. 
Writing OUTPUT_TOUR_FILE: "baseline_results/cvrp_lkh/Vrp-Set-B-n78/Vrp-Set-B-n78-lkh/0.lkh1.tour" ... done
* 237: Cost = 0_123157, Time = 0.97 sec. 
Writing OUTPUT_TOUR_FILE: "baseline_results/cvrp_lkh/Vrp-Set-B-n78/Vrp-Set-B-n78-lkh/0.lkh1.tour" ... done
* 274: Cost = 0_123133, Time = 1.18 sec. 
Writing OUTPUT_TOUR_FILE: "baseline_results/cvrp_lkh/Vrp-Set-B-n78/Vrp-Set-B-n78-lkh/0.lkh1.tour" ... done
* 399: Cost = 0_123040, Time = 1.89 sec. 
Writing OUTPUT_TOUR_FILE: "baseline_results/cvrp_lkh/Vrp-Set-B-n78/Vrp-Set-B-n78-lkh/0.lkh1.tour" ... done
* 446: Cost = 0_122795, Time = 2.12 sec. 
Writing OUTPUT_TOUR_FILE: "baseline_results/cvrp_lkh/Vrp-Set-B-n78/Vrp-Set-B-n78-lkh/0.lkh1.tour" ... done
* 461: Cost = 0_122789, Time = 2.18 sec. 
Writing OUTPUT_TOUR_FILE: "baseline_results/cvrp_lkh/Vrp-Set-B-n78/Vrp-Set-B-n78-lkh/0.lkh1.tour" ... done
Population:
  1: 0_122789
Run 1: Cost = 0_122789, Time = 40.26 sec. 

Successes/Runs = 0/1 
Cost.min = 122789, Cost.avg = 122789.00, Cost.max = 122789
Gap.min = 0.0000%, Gap.avg = 0.0000%, Gap.max = 0.0000%
Penalty.min = 0, Penalty.avg = 0.00, Penalty.max = 0
Trials.min = 10000, Trials.avg = 10000.0, Trials.max = 10000
Time.min = 40.26 sec., Time.avg = 40.26 sec., Time.max = 40.26 sec.
Time.total = 40.28 sec.
  Size.min = 5, Size.max = 11, Penalty = 0
  Cost.min = 2866, Cost.max = 22094, Cost.sum = 122789
Best CVRP solution:
  Cost = 0_122789

