experiment/data/lkh-res/Vrp-Set-B-n78/Vrp-Set-B-n78-lkh/0.lkh1.tour
NAME : 0.122789.tour
COMMENT : Length = 122789
COMMENT : Found by LKH-3 [Keld Helsgaun] Tue Apr  9 01:04:11 2024
TYPE : TOUR
DIMENSION : 87
TOUR_SECTION
1
3
64
6
50
28
84
66
76
58
30
71
38
31
86
72
23
16
35
13
9
57
39
59
80
78
24
45
27
12
65
41
83
43
17
19
26
11
69
54
79
52
46
47
32
74
77
8
82
51
62
40
49
75
29
85
67
61
7
63
55
21
4
33
48
81
2
25
53
22
44
68
70
73
18
87
42
15
37
5
60
36
56
34
14
20
10
-1
EOF
